375,376,377,378,383,384,385,386,387,388,389,390,395,396,397,398,112,113,114,126,127,231,232,233,234,235,236,238,263,264,265,266,267,268,269,270,271,272,273,274,277,278,199,200,201,202,203,204,205,206,228,229,230,950,952,953,631,647,648,649,650,651,652,653,654,655,656,657,658,659,660,661,662,735,736,738